comb_00001111
1.0 Ang
3.5779930000000002 0.0000000000000002 0.0000000000000002
0.0000000000000000 3.5779930000000002 0.0000000000000002
0.0000000000000000 0.0000000000000000 12.2525300000000001
Cr Mn As 
4 4 4 
Direct
0.0000000000000000 0.5000000000000000 0.3326450000000000 Cr
0.5000000000000000 0.0000000000000000 0.1673550000000000 Cr
0.0000000000000000 0.5000000000000000 0.8326450000000001 Cr
0.5000000000000000 0.0000000000000000 0.6673550000000000 Cr
0.0000000000000000 0.0000000000000000 0.0000000000000000 Mn
0.5000000000000000 0.5000000000000000 0.0000000000000000 Mn
0.0000000000000000 0.0000000000000000 0.5000000000000000 Mn
0.5000000000000000 0.5000000000000000 0.5000000000000000 Mn
0.0000000000000000 0.5000000000000000 0.1359680000000001 As
0.5000000000000000 0.0000000000000000 0.3640319999999999 As
0.0000000000000000 0.5000000000000000 0.6359680000000001 As
0.5000000000000000 0.0000000000000000 0.8640319999999999 As
